
--- Job lecture.gms Start 12/12/24 11:37:04 48.4.0 d74fe9ea WEX-WEI x86 64bit/MS Windows
--- Applying:
    C:\GAMS\48\gmsprmNT.txt
--- GAMS Parameters defined
    Input C:\Users\Husted42\Documents\GitHub\Husted42\Tmp\lecture.gms
    PageSize 0
    ScrDir C:\Users\Husted42\Documents\GitHub\Husted42\Tmp\225a\
    SysDir C:\GAMS\48\
    LogOption 3
    ErrMsg 1
    ErrorLog 99
    IDE 1
    LstTitleLeftAligned 1
Licensee: GAMS Demo, for EULA and demo limitations see   G241001/0001CB-GEN
          https://www.gams.com/latest/docs/UG%5FLicense.html         DC0000
          C:\GAMS\48\gamslice.txt
          Demo license for demonstration and instructional purposes only
Processor information: 1 socket(s), 16 core(s), and 22 thread(s) available
GAMS 48.4.0   Copyright (C) 1987-2024 GAMS Development. All rights reserved
--- Starting compilation
--- lecture.gms(46) 3 Mb
--- Starting execution: elapsed 0:00:00.008
--- lecture.gms(22) 4 Mb
--- Generating LP model transport
--- lecture.gms(44) 4 Mb
---   8 rows  13 columns  37 non-zeroes
--- Range statistics (absolute non-zero finite values)
--- RHS       [min, max] : [ 2.500E+02, 1.000E+03] - Zero values observed as well
--- Bound     [min, max] : [        NA,        NA] - Zero values observed as well
--- Matrix    [min, max] : [ 1.000E+00, 1.325E+03]
--- Executing CPLEX (Solvelink=2): elapsed 0:00:00.026

IBM ILOG CPLEX   48.4.0 d74fe9ea Nov 27, 2024          WEI x86 64bit/MS Window

*** This solver runs with a demo license. No commercial use.
--- GMO setup time: 0.00s
--- GMO memory 0.50 Mb (peak 0.50 Mb)
--- Dictionary memory 0.00 Mb
--- Cplex 22.1.1.0 link memory 0.00 Mb (peak 0.00 Mb)
--- Starting Cplex

Version identifier: 22.1.1.0 | 2022-11-27 | 9160aff4d
CPXPARAM_Advance                                 0
CPXPARAM_Simplex_Display                         2
CPXPARAM_MIP_Display                             4
CPXPARAM_MIP_Pool_Capacity                       0
CPXPARAM_MIP_Tolerances_AbsMIPGap                0
Tried aggregator 1 time.
LP Presolve eliminated 0 rows and 1 columns.
Reduced LP has 7 rows, 12 columns, and 24 nonzeros.
Presolve time = 0.00 sec. (0.01 ticks)

Iteration      Dual Objective            In Variable           Out Variable
     1          430625.000000  x(factory_1,market_1) demand(market_1) slack
     2          806525.000000  x(factory_1,market_2) demand(market_2) slack
     3         1143675.000000  x(factory_2,market_3) demand(market_3) slack
     4         1463675.000000  x(factory_1,market_4) demand(market_4) slack
     5         1463675.000000  x(factory_2,market_1)supply(factory_1) slack
     6         1463675.000000  x(factory_3,market_1)supply(factory_2) slack
     7         1463675.000000  x(factory_3,market_4)  x(factory_1,market_1)

--- LP status (1): optimal.
--- Cplex Time: 0.00sec (det. 0.02 ticks)


Optimal solution found
Objective:      1463675.000000

--- Reading solution for model transport
--- Executing after solve: elapsed 0:00:00.081
--- lecture.gms(46) 4 Mb
*** Status: Normal completion
--- Job lecture.gms Stop 12/12/24 11:37:05 elapsed 0:00:00.089
